tsp_instances/TSP20/instance81.tsp
NODE_COORD_SECTION
0 58 163
1 160 1
2 34 143
3 28 13
4 12 169
5 159 74
6 83 135
7 64 141
8 141 174
9 41 17
10 151 72
11 54 119
12 34 14
13 26 87
14 53 160
15 13 9
16 38 73
17 117 115
18 84 79
19 131 4
