tsp_instances/TSP20/instance81.opt.tour
TOUR_SECTION
1
8
7
9
18
19
11
6
2
20
10
13
4
16
17
14
12
3
5
15
-1